c Induced subgraph on N(b) cap C
p edge 80 1200
e 1 2
e 1 3
e 1 4
e 1 5
e 1 6
e 1 9
e 1 10
e 1 13
e 1 14
e 1 18
e 1 21
e 1 23
e 1 30
e 1 31
e 1 32
e 1 37
e 1 45
e 1 46
e 1 47
e 1 52
e 1 56
e 1 59
e 1 61
e 1 62
e 1 65
e 1 66
e 1 70
e 1 74
e 1 76
e 1 78
e 2 3
e 2 4
e 2 5
e 2 6
e 2 11
e 2 12
e 2 15
e 2 16
e 2 18
e 2 19
e 2 20
e 2 23
e 2 30
e 2 33
e 2 37
e 2 41
e 2 42
e 2 44
e 2 49
e 2 53
e 2 58
e 2 63
e 2 64
e 2 65
e 2 70
e 2 71
e 2 76
e 2 77
e 2 78
e 3 4
e 3 7
e 3 8
e 3 13
e 3 14
e 3 15
e 3 16
e 3 19
e 3 20
e 3 21
e 3 23
e 3 26
e 3 28
e 3 32
e 3 34
e 3 42
e 3 45
e 3 52
e 3 53
e 3 54
e 3 58
e 3 62
e 3 65
e 3 68
e 3 69
e 3 71
e 3 74
e 3 80
e 4 7
e 4 8
e 4 9
e 4 10
e 4 11
e 4 12
e 4 20
e 4 26
e 4 31
e 4 32
e 4 33
e 4 34
e 4 36
e 4 37
e 4 41
e 4 46
e 4 49
e 4 55
e 4 56
e 4 59
e 4 63
e 4 68
e 4 71
e 4 73
e 4 74
e 4 78
e 4 80
e 5 9
e 5 10
e 5 11
e 5 12
e 5 13
e 5 14
e 5 15
e 5 16
e 5 22
e 5 24
e 5 30
e 5 35
e 5 36
e 5 37
e 5 39
e 5 42
e 5 43
e 5 45
e 5 51
e 5 52
e 5 53
e 5 57
e 5 61
e 5 67
e 5 75
e 5 76
e 5 77
e 5 78
e 6 9
e 6 10
e 6 11
e 6 12
e 6 13
e 6 14
e 6 15
e 6 16
e 6 18
e 6 23
e 6 25
e 6 27
e 6 28
e 6 38
e 6 40
e 6 41
e 6 46
e 6 48
e 6 49
e 6 50
e 6 56
e 6 60
e 6 64
e 6 65
e 6 66
e 6 70
e 6 72
e 6 79
e 7 9
e 7 10
e 7 11
e 7 12
e 7 13
e 7 14
e 7 15
e 7 16
e 7 17
e 7 20
e 7 21
e 7 25
e 7 31
e 7 34
e 7 35
e 7 40
e 7 43
e 7 44
e 7 51
e 7 55
e 7 59
e 7 60
e 7 62
e 7 69
e 7 71
e 7 75
e 7 79
e 7 80
e 8 9
e 8 10
e 8 11
e 8 12
e 8 13
e 8 14
e 8 15
e 8 16
e 8 19
e 8 22
e 8 26
e 8 27
e 8 29
e 8 32
e 8 33
e 8 39
e 8 47
e 8 48
e 8 50
e 8 54
e 8 57
e 8 58
e 8 63
e 8 67
e 8 68
e 8 72
e 8 73
e 8 74
e 9 11
e 9 12
e 9 13
e 9 14
e 9 29
e 9 30
e 9 31
e 9 32
e 9 36
e 9 39
e 9 40
e 9 41
e 9 43
e 9 48
e 9 49
e 9 50
e 9 51
e 9 57
e 9 59
e 9 66
e 9 69
e 9 74
e 9 76
e 9 79
e 10 11
e 10 12
e 10 13
e 10 14
e 10 21
e 10 22
e 10 24
e 10 25
e 10 26
e 10 27
e 10 35
e 10 37
e 10 46
e 10 47
e 10 55
e 10 56
e 10 60
e 10 62
e 10 64
e 10 67
e 10 68
e 10 72
e 10 75
e 10 78
e 11 15
e 11 16
e 11 19
e 11 24
e 11 25
e 11 27
e 11 34
e 11 37
e 11 39
e 11 41
e 11 43
e 11 44
e 11 49
e 11 51
e 11 57
e 11 58
e 11 60
e 11 66
e 11 72
e 11 73
e 11 78
e 11 80
e 12 15
e 12 16
e 12 17
e 12 20
e 12 22
e 12 30
e 12 33
e 12 35
e 12 36
e 12 40
e 12 46
e 12 48
e 12 50
e 12 54
e 12 56
e 12 63
e 12 64
e 12 67
e 12 71
e 12 75
e 12 76
e 12 79
e 13 15
e 13 16
e 13 18
e 13 21
e 13 22
e 13 27
e 13 28
e 13 29
e 13 32
e 13 40
e 13 42
e 13 43
e 13 51
e 13 53
e 13 55
e 13 61
e 13 62
e 13 67
e 13 70
e 13 72
e 13 74
e 13 79
e 14 15
e 14 16
e 14 23
e 14 25
e 14 26
e 14 31
e 14 35
e 14 38
e 14 39
e 14 45
e 14 47
e 14 48
e 14 50
e 14 52
e 14 57
e 14 59
e 14 60
e 14 65
e 14 68
e 14 69
e 14 75
e 14 77
e 15 23
e 15 27
e 15 33
e 15 34
e 15 35
e 15 38
e 15 39
e 15 40
e 15 42
e 15 44
e 15 53
e 15 54
e 15 57
e 15 61
e 15 63
e 15 65
e 15 72
e 15 75
e 15 79
e 15 80
e 16 17
e 16 18
e 16 19
e 16 20
e 16 22
e 16 25
e 16 28
e 16 43
e 16 45
e 16 48
e 16 50
e 16 51
e 16 52
e 16 58
e 16 60
e 16 67
e 16 70
e 16 71
e 16 73
e 16 77
e 17 18
e 17 19
e 17 22
e 17 24
e 17 28
e 17 29
e 17 31
e 17 33
e 17 34
e 17 35
e 17 36
e 17 38
e 17 40
e 17 46
e 17 50
e 17 51
e 17 52
e 17 55
e 17 58
e 17 60
e 17 62
e 17 63
e 17 64
e 17 69
e 17 76
e 17 77
e 17 80
e 18 20
e 18 25
e 18 27
e 18 32
e 18 37
e 18 38
e 18 40
e 18 41
e 18 42
e 18 45
e 18 46
e 18 47
e 18 48
e 18 51
e 18 52
e 18 53
e 18 55
e 18 58
e 18 59
e 18 62
e 18 63
e 18 64
e 18 67
e 18 76
e 19 21
e 19 26
e 19 28
e 19 29
e 19 33
e 19 34
e 19 37
e 19 42
e 19 48
e 19 49
e 19 51
e 19 52
e 19 57
e 19 60
e 19 63
e 19 64
e 19 65
e 19 66
e 19 67
e 19 70
e 19 72
e 19 74
e 19 76
e 19 80
e 20 22
e 20 26
e 20 28
e 20 30
e 20 32
e 20 40
e 20 43
e 20 44
e 20 45
e 20 46
e 20 48
e 20 49
e 20 53
e 20 54
e 20 55
e 20 59
e 20 60
e 20 62
e 20 64
e 20 65
e 20 73
e 20 75
e 20 78
e 21 24
e 21 26
e 21 29
e 21 31
e 21 34
e 21 37
e 21 40
e 21 44
e 21 45
e 21 51
e 21 53
e 21 54
e 21 56
e 21 59
e 21 60
e 21 61
e 21 65
e 21 67
e 21 68
e 21 70
e 21 71
e 21 72
e 21 75
e 21 76
e 22 24
e 22 25
e 22 26
e 22 29
e 22 30
e 22 32
e 22 33
e 22 36
e 22 39
e 22 40
e 22 52
e 22 53
e 22 55
e 22 56
e 22 57
e 22 58
e 22 60
e 22 62
e 22 70
e 22 73
e 22 78
e 22 79
e 23 25
e 23 26
e 23 27
e 23 28
e 23 30
e 23 31
e 23 33
e 23 34
e 23 35
e 23 37
e 23 39
e 23 47
e 23 49
e 23 50
e 23 54
e 23 56
e 23 58
e 23 61
e 23 62
e 23 64
e 23 71
e 23 74
e 23 77
e 23 79
e 24 27
e 24 29
e 24 30
e 24 34
e 24 35
e 24 38
e 24 41
e 24 44
e 24 45
e 24 46
e 24 47
e 24 49
e 24 51
e 24 53
e 24 55
e 24 56
e 24 57
e 24 58
e 24 60
e 24 61
e 24 68
e 24 73
e 24 76
e 24 77
e 25 28
e 25 34
e 25 37
e 25 39
e 25 40
e 25 41
e 25 47
e 25 52
e 25 55
e 25 56
e 25 57
e 25 58
e 25 59
e 25 62
e 25 66
e 25 67
e 25 68
e 25 69
e 25 71
e 25 73
e 25 79
e 26 27
e 26 29
e 26 31
e 26 33
e 26 36
e 26 37
e 26 38
e 26 39
e 26 48
e 26 49
e 26 52
e 26 53
e 26 54
e 26 56
e 26 59
e 26 60
e 26 62
e 26 64
e 26 75
e 26 80
e 27 29
e 27 35
e 27 37
e 27 38
e 27 43
e 27 46
e 27 47
e 27 48
e 27 49
e 27 50
e 27 51
e 27 53
e 27 58
e 27 61
e 27 62
e 27 63
e 27 66
e 27 74
e 27 75
e 27 80
e 28 29
e 28 34
e 28 40
e 28 43
e 28 46
e 28 49
e 28 50
e 28 54
e 28 55
e 28 61
e 28 62
e 28 64
e 28 65
e 28 66
e 28 67
e 28 68
e 28 69
e 28 72
e 28 73
e 28 74
e 28 77
e 29 30
e 29 31
e 29 36
e 29 38
e 29 40
e 29 42
e 29 49
e 29 50
e 29 51
e 29 54
e 29 57
e 29 59
e 29 61
e 29 62
e 29 63
e 29 66
e 29 68
e 29 70
e 29 73
e 30 32
e 30 35
e 30 39
e 30 41
e 30 42
e 30 43
e 30 44
e 30 45
e 30 46
e 30 49
e 30 50
e 30 54
e 30 56
e 30 58
e 30 59
e 30 61
e 30 62
e 30 63
e 30 70
e 30 79
e 31 33
e 31 34
e 31 36
e 31 43
e 31 46
e 31 49
e 31 50
e 31 52
e 31 57
e 31 60
e 31 61
e 31 62
e 31 68
e 31 70
e 31 71
e 31 75
e 31 76
e 31 77
e 31 78
e 31 79
e 32 34
e 32 36
e 32 40
e 32 41
e 32 42
e 32 43
e 32 47
e 32 48
e 32 52
e 32 54
e 32 55
e 32 56
e 32 57
e 32 58
e 32 61
e 32 63
e 32 65
e 32 69
e 32 72
e 32 78
e 33 34
e 33 38
e 33 41
e 33 47
e 33 50
e 33 53
e 33 55
e 33 56
e 33 57
e 33 58
e 33 64
e 33 70
e 33 72
e 33 74
e 33 75
e 33 76
e 33 78
e 33 79
e 33 80
e 34 35
e 34 37
e 34 40
e 34 43
e 34 49
e 34 52
e 34 53
e 34 55
e 34 56
e 34 57
e 34 58
e 34 61
e 34 63
e 34 68
e 34 72
e 35 37
e 35 38
e 35 42
e 35 43
e 35 44
e 35 48
e 35 50
e 35 51
e 35 52
e 35 56
e 35 59
e 35 62
e 35 63
e 35 64
e 35 68
e 35 71
e 35 72
e 35 77
e 36 37
e 36 39
e 36 42
e 36 48
e 36 51
e 36 52
e 36 54
e 36 55
e 36 61
e 36 63
e 36 64
e 36 66
e 36 69
e 36 71
e 36 73
e 36 75
e 36 77
e 36 78
e 36 79
e 36 80
e 37 39
e 37 44
e 37 51
e 37 52
e 37 53
e 37 55
e 37 59
e 37 61
e 37 63
e 37 64
e 37 66
e 37 67
e 37 71
e 37 74
e 38 40
e 38 41
e 38 42
e 38 44
e 38 45
e 38 47
e 38 50
e 38 52
e 38 53
e 38 54
e 38 56
e 38 57
e 38 59
e 38 60
e 38 64
e 38 66
e 38 69
e 38 70
e 38 80
e 39 40
e 39 44
e 39 45
e 39 49
e 39 53
e 39 54
e 39 58
e 39 59
e 39 60
e 39 63
e 39 67
e 39 69
e 39 73
e 39 74
e 39 77
e 39 79
e 39 80
e 40 49
e 40 53
e 40 54
e 40 56
e 40 57
e 40 59
e 40 60
e 40 63
e 40 65
e 40 67
e 40 69
e 40 76
e 41 42
e 41 44
e 41 46
e 41 50
e 41 51
e 41 55
e 41 56
e 41 57
e 41 58
e 41 59
e 41 65
e 41 68
e 41 69
e 41 71
e 41 72
e 41 76
e 41 79
e 41 80
e 42 45
e 42 51
e 42 52
e 42 54
e 42 57
e 42 62
e 42 63
e 42 64
e 42 67
e 42 68
e 42 70
e 42 71
e 42 72
e 42 78
e 42 79
e 42 80
e 43 44
e 43 48
e 43 49
e 43 50
e 43 52
e 43 53
e 43 58
e 43 61
e 43 62
e 43 66
e 43 69
e 43 70
e 43 72
e 43 75
e 43 77
e 43 78
e 44 53
e 44 54
e 44 55
e 44 59
e 44 60
e 44 61
e 44 64
e 44 65
e 44 66
e 44 69
e 44 70
e 44 71
e 44 72
e 44 73
e 44 77
e 44 79
e 45 46
e 45 47
e 45 50
e 45 51
e 45 53
e 45 54
e 45 58
e 45 59
e 45 60
e 45 67
e 45 68
e 45 70
e 45 73
e 45 74
e 45 75
e 45 78
e 45 80
e 46 49
e 46 50
e 46 55
e 46 60
e 46 61
e 46 62
e 46 63
e 46 65
e 46 67
e 46 68
e 46 74
e 46 75
e 46 76
e 46 79
e 46 80
e 47 48
e 47 54
e 47 55
e 47 56
e 47 57
e 47 58
e 47 61
e 47 64
e 47 66
e 47 67
e 47 69
e 47 73
e 47 74
e 47 75
e 47 76
e 47 77
e 47 78
e 48 49
e 48 51
e 48 52
e 48 56
e 48 59
e 48 63
e 48 64
e 48 65
e 48 66
e 48 72
e 48 73
e 48 75
e 48 76
e 48 77
e 49 53
e 49 56
e 49 60
e 49 63
e 49 70
e 49 73
e 49 74
e 49 76
e 49 77
e 50 51
e 50 54
e 50 58
e 50 68
e 50 69
e 50 70
e 50 71
e 50 72
e 50 74
e 50 75
e 51 55
e 51 59
e 51 71
e 51 72
e 51 73
e 51 74
e 51 75
e 51 76
e 51 80
e 52 53
e 52 56
e 52 57
e 52 62
e 52 66
e 52 69
e 52 70
e 52 71
e 52 76
e 53 55
e 53 58
e 53 69
e 53 70
e 53 74
e 53 75
e 53 76
e 54 56
e 54 61
e 54 64
e 54 67
e 54 69
e 54 71
e 54 72
e 54 73
e 54 75
e 55 61
e 55 64
e 55 69
e 55 72
e 55 73
e 55 74
e 55 75
e 55 79
e 56 59
e 56 70
e 56 71
e 56 72
e 56 73
e 56 76
e 57 60
e 57 61
e 57 65
e 57 66
e 57 67
e 57 68
e 57 76
e 57 78
e 57 79
e 58 62
e 58 63
e 58 68
e 58 69
e 58 77
e 58 78
e 58 80
e 59 62
e 59 63
e 59 65
e 59 66
e 59 68
e 59 73
e 59 80
e 60 64
e 60 65
e 60 67
e 60 70
e 60 77
e 60 78
e 60 79
e 60 80
e 61 63
e 61 65
e 61 66
e 61 67
e 61 75
e 61 77
e 61 79
e 62 64
e 62 66
e 62 68
e 62 78
e 62 79
e 62 80
e 63 65
e 63 67
e 63 68
e 63 77
e 63 80
e 64 66
e 64 67
e 64 72
e 64 77
e 64 78
e 64 79
e 65 66
e 65 68
e 65 69
e 65 72
e 65 75
e 65 76
e 65 77
e 65 78
e 65 80
e 66 69
e 66 70
e 66 73
e 66 74
e 66 78
e 66 79
e 66 80
e 67 68
e 67 71
e 67 74
e 67 76
e 67 77
e 67 79
e 68 71
e 68 72
e 68 73
e 68 77
e 68 78
e 69 71
e 69 74
e 69 75
e 69 76
e 69 77
e 69 80
e 70 71
e 70 72
e 70 73
e 70 74
e 70 78
e 70 79
e 71 73
e 71 74
e 71 76
e 71 77
e 71 79
e 72 73
e 72 75
e 72 78
e 73 74
e 73 77
e 73 78
e 74 76
e 74 79
e 74 80
e 75 76
e 75 78
e 75 80
e 76 77
e 77 78
e 78 80
e 79 80
